p tw 67 74
1 2
2 13
3 4
4 5
5 6
6 7
7 8
8 9
9 10
10 11
10 16
11 12
12 14
13 24
14 15
15 16
15 50
16 17
17 18
18 19
19 20
20 21
21 22
22 23
23 25
24 35
24 57
25 26
25 30
26 27
27 28
28 29
29 53
30 31
31 32
32 33
33 34
33 44
34 36
35 46
36 37
37 38
37 42
38 39
39 40
40 41
41 53
42 43
43 44
44 45
45 47
46 61
47 48
48 49
49 67
50 51
51 52
52 53
53 54
54 55
55 56
55 61
56 58
57 65
58 59
58 61
59 60
60 61
61 62
62 63
63 64
65 66
66 67
67 3
